ACTORES = {Actor0, Actor1, Actor2, Actor3, Actor4};
Escenas =[|0,0,1,1,1,1,1,0,12
		  |1,0,0,0,1,0,0,0,3
		  |1,0,0,1,1,0,1,0,17
		  |0,0,1,1,1,1,0,1,12
		  |0,0,0,1,0,0,0,0,5
		  |];
Duracion=[4, 3, 3, 4, 2, 1, 2, 1];
Disponibilidad = [|Actor0, 19
				  |Actor1, 12
				  |Actor2, 23
				  |Actor3, 33
				  |Actor4, 31|];
Evitar = [|Actor1, Actor2
		  |Actor0, Actor3
		  |Actor0, Actor4
		  |Actor1, Actor3
		  |Actor0, Actor2|];
